VER
4

OBJSENSE
MIN

VAR
10 1
F 10

CON
26 2
SVECQRE 21
L= 5

OBJACOORD
5
0 1.0
2 -1.0
4 -2.8284271247461903
5 -1.0
9 1.0

ACOORD
38
1 0 1.0
2 1 1.0
3 2 1.0
4 3 1.0
5 4 1.0
6 5 1.0
7 6 1.0
8 7 1.0
9 8 1.0
10 9 1.0
11 0 1.0
11 5 1.0
12 1 1.0
12 8 1.0
13 2 1.0
13 9 1.0
16 0 1.0
16 5 1.0
19 1 1.0
19 8 1.0
20 2 1.0
20 9 1.0
21 2 -1.0
21 5 1.0
22 1 0.7071067811865476
22 3 -0.7071067811865476
22 7 -0.7071067811865476
22 8 0.7071067811865476
23 1 0.7071067811865476
23 3 -0.7071067811865476
23 7 -0.7071067811865476
23 8 0.7071067811865476
24 2 1.0
24 5 -1.0
25 0 1.0
25 2 1.0
25 5 1.0
25 9 1.0

BCOORD
1
25 1.0
